c SAT Generator for power-law distributed variable frequencies
c -g u -v 5 -c 21 -k 3 -p 2.750000 -b 3.200000 -f ruf5-21-5 -u 1 -U 1 -s 160947271
p cnf 5 21
1 -2 -5 0
1 -3 5 0
-1 3 -5 0
-1 2 -4 0
-1 3 4 0
3 -4 5 0
2 4 5 0
3 4 5 0
-1 2 3 0
1 -2 5 0
1 3 4 0
-2 -3 4 0
1 2 -3 0
-2 4 5 0
1 2 -4 0
1 -4 -5 0
-1 2 5 0
2 -3 5 0
-1 -2 -5 0
2 4 -5 0
2 3 -4 0